WARNING: for repeatability, setting FPU to use double precision
============================[ Problem Statistics ]=============================
|                                                                             |
|  Number of variables:        151669                                         |
|  Number of clauses:         2465730                                         |
|  Parse time:                   0.47 s                                       |
|                                                                             |
============================[ Search Statistics ]==============================
| Conflicts |          ORIGINAL         |          LEARNT          | Progress |
|           |    Vars  Clauses Literals |    Limit  Clauses Lit/Cl |          |
===============================================================================
|       100 |  151661  2465696  7141348 |   904088      100     43 |  0.005 % |
|       250 |  151661  2465696  7141348 |   994497      250     47 |  0.005 % |
|       475 |  151661  2465696  7141348 |  1093947      475     55 |  0.005 % |
|       812 |  151661  2465696  7141348 |  1203341      812     53 |  0.005 % |
|      1318 |  151661  2465696  7141348 |  1323676     1318     47 |  0.005 % |
|      2077 |  151661  2465696  7141348 |  1456043     2077     49 |  0.005 % |
|      3216 |  151661  2465696  7141348 |  1601647     3216     54 |  0.005 % |
|      4924 |  151661  2465696  7141348 |  1761812     4924     52 |  0.005 % |
|      7486 |  151661  2465696  7141348 |  1937994     7486     51 |  0.005 % |
|     11330 |  151661  2465696  7141348 |  2131793    11330     50 |  0.005 % |
|     17096 |  151661  2465696  7141348 |  2344972    17096     52 |  0.005 % |
|     25745 |  151661  2465696  7141348 |  2579470    25745     52 |  0.005 % |
|     38719 |  151661  2465696  7141348 |  2837417    38719     56 |  0.005 % |
|     58180 |  151661  2465696  7141348 |  3121158    58180     69 |  0.005 % |
|     87372 |  151657  2465579  7141114 |  3433274    87368     78 |  0.008 % |
|    131161 |  151656  2465557  7141070 |  3776602   131156     91 |  0.009 % |
|    196845 |  151656  2465557  7141070 |  4154262   196840    101 |  0.009 % |
|    295371 |  151656  2465557  7141070 |  4569688   295366    116 |  0.009 % |
|    443160 |  151656  2465557  7141070 |  5026657   443155    115 |  0.009 % |
|    664843 |  151655  2465531  7141018 |  5529323   664837    109 |  0.009 % |
|    997368 |  151655  2465531  7141018 |  6082255   997362    120 |  0.009 % |
===============================================================================
restarts              : 2355
conflicts             : 1242970        (4161 /sec)
decisions             : 29315915       (0.00 % random) (98148 /sec)
propagations          : 1443910392     (4834144 /sec)
conflict literals     : 155094593      (62.45 % deleted)
Memory used           : 1065.00 MB
CPU time              : 298.69 s

INDETERMINATE
